(set-logic HORN)
(set-info :source |
    Benchmark: C_VC
    Output by Princess (http://www.philipp.ruemmer.org/princess.shtml)
|)
(set-info :status unknown)
(declare-fun inv_main10 (Int Int Int Int) Bool)
(declare-fun inv_main14 (Int Int Int Int) Bool)
(declare-fun inv_main20 (Int Int Int) Bool)
(declare-fun inv_main6 (Int Int Int Int) Bool)
(assert (forall ((var0 Int) (var1 Int) (var2 Int) (var3 Int)) (or (not (and (= 0 var3) (= 0 var2))) (inv_main6 var1 var0 var3 var2))))
(assert (forall ((var0 Int) (var1 Int) (var2 Int) (var3 Int) (var4 Int)) (or (not (and (inv_main20 var3 var2 var1) (and (and (<= 0 (+ (+ var3 (* (- 1) (+ var1 1))) (- 1))) (= (+ var2 (- 1)) var4)) (= (+ var1 1) var0)))) (inv_main20 var3 var4 var0))))
(assert (forall ((var0 Int) (var1 Int) (var2 Int) (var3 Int) (var4 Int)) (or (not (and (inv_main14 var3 var0 var2 var4) (and (and (<= 0 (+ var3 (- 1))) (not (<= 0 (+ (+ var0 (* (- 1) var4)) (- 1))))) (= 0 var1)))) (inv_main20 var3 var2 var1))))
(assert (forall ((var0 Int) (var1 Int) (var2 Int) (var3 Int) (var4 Int) (var5 Int)) (or (not (and (inv_main14 var2 var0 var1 var4) (and (and (<= 0 (+ (+ var0 (* (- 1) var4)) (- 1))) (= (+ var1 (- 1)) var3)) (= (+ var4 1) var5)))) (inv_main14 var2 var0 var3 var5))))
(assert (forall ((var0 Int) (var1 Int) (var2 Int) (var3 Int) (var4 Int)) (or (not (and (inv_main10 var4 var1 var3 var0) (and (not (<= 0 (+ (+ var1 (* (- 1) var0)) (- 1)))) (= 0 var2)))) (inv_main14 var4 var1 var3 var2))))
(assert (forall ((var0 Int) (var1 Int) (var2 Int) (var3 Int) (var4 Int) (var5 Int)) (or (not (and (inv_main10 var4 var2 var3 var1) (and (and (<= 0 (+ (+ var2 (* (- 1) var1)) (- 1))) (= (+ var3 1) var0)) (= (+ var1 1) var5)))) (inv_main10 var4 var2 var0 var5))))
(assert (forall ((var0 Int) (var1 Int) (var2 Int) (var3 Int) (var4 Int)) (or (not (and (inv_main6 var3 var0 var4 var2) (and (not (<= 0 (+ (+ var3 (* (- 1) var4)) (- 1)))) (= 0 var1)))) (inv_main10 var3 var0 var2 var1))))
(assert (forall ((var0 Int) (var1 Int) (var2 Int) (var3 Int) (var4 Int) (var5 Int)) (or (not (and (inv_main6 var4 var0 var5 var3) (and (and (<= 0 (+ (+ var4 (* (- 1) var5)) (- 1))) (= (+ var5 1) var1)) (= (+ var3 1) var2)))) (inv_main6 var4 var0 var1 var2))))
(assert (forall ((var0 Int) (var1 Int) (var2 Int)) (not (and (inv_main20 var2 var1 var0) (not (<= 0 (+ var1 (- 1))))))))
(check-sat)
